n_res = 4;
rc = [ 10, 14, 12, 10 ];
n_tasks = 30;
d = [ 5, 6, 2, 1, 3, 7, 4, 7, 10, 1, 5, 10, 10, 8, 2, 3, 10, 2, 10, 10, 6, 10, 7, 10, 4, 2, 6, 4, 5, 1 ];
rr = [| 10, 10, 10, 10, 10, 10, 10, 10, 10, 10, 10, 10, 10, 10, 10, 10, 10, 10, 10, 10, 10, 10, 10, 10, 10, 10, 10, 10, 10, 10
      | 14, 14, 14, 14, 14, 14, 14, 14, 14, 14, 14, 14, 14, 14, 14, 14, 14, 14, 14, 14, 14, 14, 14, 14, 14, 14, 14, 14, 14, 14
      | 12, 12, 12, 12, 12, 12, 12, 12, 12, 12, 12, 12, 12, 12, 12, 12, 12, 12, 12, 12, 12, 12, 12, 12, 12, 12, 12, 12, 12, 12
      | 10, 10, 10, 10, 10, 10, 10, 10, 10, 10, 10, 10, 10, 10, 10, 10, 10, 10, 10, 10, 10, 10, 10, 10, 10, 10, 10, 10, 10, 10|];
suc = [ { 4, 7, 12 },
       { 11, 16, 19 },
       { 4, 5, 12 },
       { 8, 13, 14 },
       { 6, 16, 22 },
       { 7, 14, 19 },
       { 10, 20 },
       { 9, 19, 22 },
       { 11, 16, 17 },
       { 11, 13 },
       { 15, 26 },
       { 22, 24, 26 },
       { 17, 23, 25 },
       { 17, 20, 24 },
       { 18 },
       { 18, 28 },
       { 26 },
       { 21, 23, 27 },
       { 20, 21, 27 },
       { 23, 25 },
       { 24, 25 },
       { 28, 29, 30 },
       { 29 },
       { 30 },
       { 30 },
       { 27, 28 },
       { 29 },
       {  },
       {  },
       {  } ];
